120
150
48
20
100
59
48
27
45
100
41
50
48
78
37
60
23
22
65
91
25
31
48
53
80
100
72
61
29
28
29
30
48
97
30
20
28
42
100
21
23
44
54
36
75
63
22
62
28
83
41
98
25
30
96
84
32
96
73
42
82
54
89
26
54
31
37
21
45
23
30
57
63
40
22
60
80
30
30
45
57
40
56
48
39
77
26
99
45
51
63
50
22
73
77
37
23
29
82
28
42
73
20
77
76
26
30
77
89
44
48
76
100
30
91
31
89
37
37
50
59
61
